\* gt-FindExtremePath *\
Maximize
OBJ: - 65 EdgeFlow_21 - 48 EdgeFlow_24 + 68 EdgeFlow_27 - 83 EdgeFlow_4
 + 836 EdgeFlow_7
Subject To
Flows_from_source: EdgeFlow_7 = 1
Flows_through_10: - EdgeFlow_17 + EdgeFlow_4 + EdgeFlow_5 = 0
Flows_through_11: - EdgeFlow_16 + EdgeFlow_6 = 0
Flows_through_12: EdgeFlow_0 - EdgeFlow_19 = 0
Flows_through_13: EdgeFlow_1 - EdgeFlow_18 = 0
Flows_through_14: - EdgeFlow_22 + EdgeFlow_7 = 0
Flows_through_15: - EdgeFlow_20 - EdgeFlow_21 + EdgeFlow_9 = 0
Flows_through_16: - EdgeFlow_25 + EdgeFlow_8 = 0
Flows_through_17: EdgeFlow_11 - EdgeFlow_23 - EdgeFlow_24 = 0
Flows_through_18: EdgeFlow_10 - EdgeFlow_28 = 0
Flows_through_19: EdgeFlow_13 - EdgeFlow_26 - EdgeFlow_27 = 0
Flows_through_2: EdgeFlow_22 - EdgeFlow_9 = 0
Flows_through_20: EdgeFlow_12 - EdgeFlow_2 = 0
Flows_through_21: EdgeFlow_15 - EdgeFlow_3 - EdgeFlow_4 = 0
Flows_through_22: EdgeFlow_14 - EdgeFlow_5 = 0
Flows_through_23: EdgeFlow_17 - EdgeFlow_6 = 0
Flows_through_24: - EdgeFlow_0 + EdgeFlow_16 = 0
Flows_through_25: - EdgeFlow_1 + EdgeFlow_19 = 0
Flows_through_3: EdgeFlow_20 - EdgeFlow_8 = 0
Flows_through_4: - EdgeFlow_11 + EdgeFlow_21 + EdgeFlow_25 = 0
Flows_through_5: - EdgeFlow_10 + EdgeFlow_23 = 0
Flows_through_6: - EdgeFlow_13 + EdgeFlow_24 + EdgeFlow_28 = 0
Flows_through_7: - EdgeFlow_12 + EdgeFlow_27 = 0
Flows_through_8: - EdgeFlow_15 + EdgeFlow_2 + EdgeFlow_26 = 0
Flows_through_9: - EdgeFlow_14 + EdgeFlow_3 = 0
Flows_to_sink: EdgeFlow_18 = 1
Path_exclusive_constraint_1: EdgeFlow_0 + EdgeFlow_1 + EdgeFlow_10
 + EdgeFlow_11 + EdgeFlow_12 + EdgeFlow_13 + EdgeFlow_14 + EdgeFlow_15
 + EdgeFlow_16 + EdgeFlow_17 + EdgeFlow_18 + EdgeFlow_19 + EdgeFlow_2
 + EdgeFlow_20 + EdgeFlow_22 + EdgeFlow_23 + EdgeFlow_25 + EdgeFlow_27
 + EdgeFlow_28 + EdgeFlow_3 + EdgeFlow_5 + EdgeFlow_6 + EdgeFlow_7
 + EdgeFlow_8 + EdgeFlow_9 <= 24
Path_exclusive_constraint_10: EdgeFlow_0 + EdgeFlow_1 + EdgeFlow_10
 + EdgeFlow_11 + EdgeFlow_12 + EdgeFlow_13 + EdgeFlow_15 + EdgeFlow_16
 + EdgeFlow_17 + EdgeFlow_18 + EdgeFlow_19 + EdgeFlow_2 + EdgeFlow_21
 + EdgeFlow_22 + EdgeFlow_23 + EdgeFlow_27 + EdgeFlow_28 + EdgeFlow_4
 + EdgeFlow_6 + EdgeFlow_7 + EdgeFlow_9 <= 20
Path_exclusive_constraint_11: EdgeFlow_0 + EdgeFlow_1 + EdgeFlow_10
 + EdgeFlow_11 + EdgeFlow_13 + EdgeFlow_15 + EdgeFlow_16 + EdgeFlow_17
 + EdgeFlow_18 + EdgeFlow_19 + EdgeFlow_20 + EdgeFlow_22 + EdgeFlow_23
 + EdgeFlow_25 + EdgeFlow_26 + EdgeFlow_28 + EdgeFlow_4 + EdgeFlow_6
 + EdgeFlow_7 + EdgeFlow_8 + EdgeFlow_9 <= 20
Path_exclusive_constraint_12: EdgeFlow_0 + EdgeFlow_1 + EdgeFlow_11
 + EdgeFlow_13 + EdgeFlow_14 + EdgeFlow_15 + EdgeFlow_16 + EdgeFlow_17
 + EdgeFlow_18 + EdgeFlow_19 + EdgeFlow_21 + EdgeFlow_22 + EdgeFlow_24
 + EdgeFlow_26 + EdgeFlow_3 + EdgeFlow_5 + EdgeFlow_6 + EdgeFlow_7
 + EdgeFlow_9 <= 18
Path_exclusive_constraint_13: EdgeFlow_0 + EdgeFlow_1 + EdgeFlow_11
 + EdgeFlow_12 + EdgeFlow_13 + EdgeFlow_15 + EdgeFlow_16 + EdgeFlow_17
 + EdgeFlow_18 + EdgeFlow_19 + EdgeFlow_2 + EdgeFlow_21 + EdgeFlow_22
 + EdgeFlow_24 + EdgeFlow_27 + EdgeFlow_4 + EdgeFlow_6 + EdgeFlow_7
 + EdgeFlow_9 <= 18
Path_exclusive_constraint_14: EdgeFlow_0 + EdgeFlow_1 + EdgeFlow_11
 + EdgeFlow_13 + EdgeFlow_15 + EdgeFlow_16 + EdgeFlow_17 + EdgeFlow_18
 + EdgeFlow_19 + EdgeFlow_20 + EdgeFlow_22 + EdgeFlow_24 + EdgeFlow_25
 + EdgeFlow_26 + EdgeFlow_4 + EdgeFlow_6 + EdgeFlow_7 + EdgeFlow_8
 + EdgeFlow_9 <= 18
Path_exclusive_constraint_2: EdgeFlow_0 + EdgeFlow_1 + EdgeFlow_11
 + EdgeFlow_12 + EdgeFlow_13 + EdgeFlow_14 + EdgeFlow_15 + EdgeFlow_16
 + EdgeFlow_17 + EdgeFlow_18 + EdgeFlow_19 + EdgeFlow_2 + EdgeFlow_20
 + EdgeFlow_22 + EdgeFlow_24 + EdgeFlow_25 + EdgeFlow_27 + EdgeFlow_3
 + EdgeFlow_5 + EdgeFlow_6 + EdgeFlow_7 + EdgeFlow_8 + EdgeFlow_9 <= 22
Path_exclusive_constraint_3: EdgeFlow_0 + EdgeFlow_1 + EdgeFlow_10
 + EdgeFlow_11 + EdgeFlow_12 + EdgeFlow_13 + EdgeFlow_14 + EdgeFlow_15
 + EdgeFlow_16 + EdgeFlow_17 + EdgeFlow_18 + EdgeFlow_19 + EdgeFlow_2
 + EdgeFlow_21 + EdgeFlow_22 + EdgeFlow_23 + EdgeFlow_27 + EdgeFlow_28
 + EdgeFlow_3 + EdgeFlow_5 + EdgeFlow_6 + EdgeFlow_7 + EdgeFlow_9 <= 22
Path_exclusive_constraint_4: EdgeFlow_0 + EdgeFlow_1 + EdgeFlow_10
 + EdgeFlow_11 + EdgeFlow_13 + EdgeFlow_14 + EdgeFlow_15 + EdgeFlow_16
 + EdgeFlow_17 + EdgeFlow_18 + EdgeFlow_19 + EdgeFlow_20 + EdgeFlow_22
 + EdgeFlow_23 + EdgeFlow_25 + EdgeFlow_26 + EdgeFlow_28 + EdgeFlow_3
 + EdgeFlow_5 + EdgeFlow_6 + EdgeFlow_7 + EdgeFlow_8 + EdgeFlow_9 <= 22
Path_exclusive_constraint_5: EdgeFlow_0 + EdgeFlow_1 + EdgeFlow_10
 + EdgeFlow_11 + EdgeFlow_12 + EdgeFlow_13 + EdgeFlow_15 + EdgeFlow_16
 + EdgeFlow_17 + EdgeFlow_18 + EdgeFlow_19 + EdgeFlow_2 + EdgeFlow_20
 + EdgeFlow_22 + EdgeFlow_23 + EdgeFlow_25 + EdgeFlow_27 + EdgeFlow_28
 + EdgeFlow_4 + EdgeFlow_6 + EdgeFlow_7 + EdgeFlow_8 + EdgeFlow_9 <= 22
Path_exclusive_constraint_6: EdgeFlow_0 + EdgeFlow_1 + EdgeFlow_11
 + EdgeFlow_12 + EdgeFlow_13 + EdgeFlow_14 + EdgeFlow_15 + EdgeFlow_16
 + EdgeFlow_17 + EdgeFlow_18 + EdgeFlow_19 + EdgeFlow_2 + EdgeFlow_21
 + EdgeFlow_22 + EdgeFlow_24 + EdgeFlow_27 + EdgeFlow_3 + EdgeFlow_5
 + EdgeFlow_6 + EdgeFlow_7 + EdgeFlow_9 <= 20
Path_exclusive_constraint_7: EdgeFlow_0 + EdgeFlow_1 + EdgeFlow_11
 + EdgeFlow_13 + EdgeFlow_14 + EdgeFlow_15 + EdgeFlow_16 + EdgeFlow_17
 + EdgeFlow_18 + EdgeFlow_19 + EdgeFlow_20 + EdgeFlow_22 + EdgeFlow_24
 + EdgeFlow_25 + EdgeFlow_26 + EdgeFlow_3 + EdgeFlow_5 + EdgeFlow_6
 + EdgeFlow_7 + EdgeFlow_8 + EdgeFlow_9 <= 20
Path_exclusive_constraint_8: EdgeFlow_0 + EdgeFlow_1 + EdgeFlow_11
 + EdgeFlow_12 + EdgeFlow_13 + EdgeFlow_15 + EdgeFlow_16 + EdgeFlow_17
 + EdgeFlow_18 + EdgeFlow_19 + EdgeFlow_2 + EdgeFlow_20 + EdgeFlow_22
 + EdgeFlow_24 + EdgeFlow_25 + EdgeFlow_27 + EdgeFlow_4 + EdgeFlow_6
 + EdgeFlow_7 + EdgeFlow_8 + EdgeFlow_9 <= 20
Path_exclusive_constraint_9: EdgeFlow_0 + EdgeFlow_1 + EdgeFlow_10
 + EdgeFlow_11 + EdgeFlow_13 + EdgeFlow_14 + EdgeFlow_15 + EdgeFlow_16
 + EdgeFlow_17 + EdgeFlow_18 + EdgeFlow_19 + EdgeFlow_21 + EdgeFlow_22
 + EdgeFlow_23 + EdgeFlow_26 + EdgeFlow_28 + EdgeFlow_3 + EdgeFlow_5
 + EdgeFlow_6 + EdgeFlow_7 + EdgeFlow_9 <= 20
Binaries
EdgeFlow_0
EdgeFlow_1
EdgeFlow_10
EdgeFlow_11
EdgeFlow_12
EdgeFlow_13
EdgeFlow_14
EdgeFlow_15
EdgeFlow_16
EdgeFlow_17
EdgeFlow_18
EdgeFlow_19
EdgeFlow_2
EdgeFlow_20
EdgeFlow_21
EdgeFlow_22
EdgeFlow_23
EdgeFlow_24
EdgeFlow_25
EdgeFlow_26
EdgeFlow_27
EdgeFlow_28
EdgeFlow_3
EdgeFlow_4
EdgeFlow_5
EdgeFlow_6
EdgeFlow_7
EdgeFlow_8
EdgeFlow_9
End
